50
1000
495
492
489
488
487
487
486
475
473
469
469
463
455
454
452
432
430
404
401
396
396
377
368
352
344
341
321
311
309
288
285
282
275
274
266
256
252
245
244
238
227
226
213
207
203
203
197
196
170
168
